perugia = [100, 500, 200, 200, 200];
terni
foligno
citta_di_castello
spoleto
gubbio
assisi
corciano
bastia_umbra
orvieto
marsciano
narni
umbertide
todi
castiglione_del_lago
magione
gualdo_tardino
amelia
san_giustino